NAME : portcgen-26-15
COMMENT : portcgen N=26, seed=15
TYPE : TSP
DIMENSION : 26
EDGE_WEIGHT_TYPE : EUC_2D
NODE_COORD_SECTION
1 101671 93028
2 -333349 -227406
3 155128 59922
4 170687 290613
5 44921 -306582
6 323334 -300244
7 238135 -7783
8 -219919 151860
9 330698 91707
10 -45285 -245419
11 87455 134729
12 -168629 160813
13 318876 -239825
14 -165205 -228437
15 289668 16738
16 -39080 -279726
17 -90484 119824
18 307501 205911
19 -382004 -6997
20 244899 -122352
21 -115601 21582
22 111378 131509
23 38348 -197471
24 188368 -155577
25 208425 784
26 323737 64624
